(set-logic QF_S)
(set-option :strings-exp true)
(set-option :produce-models true)
(declare-fun sigmaStar_0 () String)
(declare-fun literal_7 () String)
(assert (= literal_7 "\x3c\x6f\x70\x74\x69\x6f\x6e\x20\x76\x61\x6c\x75\x65\x3d\x22\x69\x6e\x63\x6c\x75\x64\x65\x2f\x6c\x61\x6e\x67\x22"))
(assert (str.in.re literal_7 (re.++ (re.* re.allchar) (re.++ (str.to.re "\x5c\x3c\x53\x43\x52\x49\x50\x54") (re.* re.allchar)))))
(check-sat)
(get-model)
